49
114
33
250
102
0,8,44,60,67,87,131,134,168,169,186,187,199,232
105,204,227
18,50,96,117,201
216
115
37
93,113,234
218
114,243
151
81
71,106,219
62,97
233,249
59
147
15,23,46,49,73,75,78,101,110,138,163,173,176,200,203,210,244,246
145
13,162,167,214,222
69,103
4,123,174,252
148,171,210
238,249
34
161
140
68,224
16,53,180
17,31,143
150
135
17
2,9,12,19,20,22,24,26,29,43,45,51,52,54,57,58,63,66,82,89,94,108,119,124,133,146,149,153,154,158,159,160,164,181,183,188,192,202,208,211,245
72
228
166
16,195
235
48
180
243
5,249
21,49
242
129,190
125
84,178,179,196,198
7,32,74,79,80,85,91,130,132,136,137,139,157,205,209,226,247,248
230
27
55,97
128,193
10,228
156
128,223
123,174
145,155
92
126
14,123,174
191
141
28,114
6,128
231
104,107
17,30,143
142,145
98
142
112
83,123,174,252
207,228
36
70
111,116,241
128,152
213
231,251
